solution status: optimal solution found
objective value:                                    0
$_21__5_y                                         -11 	(obj:0)
$_21__5_z                                          24 	(obj:0)
$_22__5_y                                          22 	(obj:0)
$_22__5_z                                          22 	(obj:0)
one.thingy.devices[3].thingy.vs0_y                   23 	(obj:0)
one.thingy.devices[3].thingy.vs0_z                   24 	(obj:0)
$_25__5_y                                          17 	(obj:0)
$_25__5_z                                          24 	(obj:0)
one.thingy.devices[0].thingy.vs0_y                   18 	(obj:0)
one.thingy.devices[0].thingy.vs0_z                   24 	(obj:0)
$_20__5_y                                         -12 	(obj:0)
$_20__5_z                                          24 	(obj:0)
one.thingy.devices[1].thingy.vs0_y                   22 	(obj:0)
one.thingy.devices[1].thingy.vs0_z                   20 	(obj:0)
$_19__5_y                                         -10 	(obj:0)
$_19__5_z                                          24 	(obj:0)
one.thingy.devices[2].thingy.vs0_y                   20 	(obj:0)
one.thingy.devices[2].thingy.vs0_z                   23 	(obj:0)
$_24__5_y                                          19 	(obj:0)
$_24__5_z                                          22 	(obj:0)
$_23__5_y                                          24 	(obj:0)
$_23__5_z                                          22 	(obj:0)
$_18__5_y                                         -13 	(obj:0)
$_18__5_z                                          24 	(obj:0)
